data/lp_files/q3/51_3.lp
\ Model foo
\ LP format - for model browsing. Use MPS format to capture full model detail.
Minimize
  z
Subject To
 allocateEach[1]: x[1,1] + x[2,1] + x[3,1] = 1
 allocateEach[2]: x[1,2] + x[2,2] + x[3,2] = 1
 allocateEach[3]: x[1,3] + x[2,3] + x[3,3] = 1
 allocateEach[4]: x[1,4] + x[2,4] + x[3,4] = 1
 allocateEach[5]: x[1,5] + x[2,5] + x[3,5] = 1
 allocateEach[6]: x[1,6] + x[2,6] + x[3,6] = 1
 allocateEach[7]: x[1,7] + x[2,7] + x[3,7] = 1
 allocateEach[8]: x[1,8] + x[2,8] + x[3,8] = 1
 allocateEach[9]: x[1,9] + x[2,9] + x[3,9] = 1
 allocateEach[10]: x[1,10] + x[2,10] + x[3,10] = 1
 allocateEach[11]: x[1,11] + x[2,11] + x[3,11] = 1
 allocateAllCash: cashProportion[1] + cashProportion[2] + cashProportion[3]
   = 1
 findWorstP[1,2]: z + 0.0348128807658834 cashProportion[1]
   - 0.0348128807658834 cashProportion[2] + 0.0627154046997389 x[1,1]
   + 0.0482854656222802 x[1,2] + 0.1528807658833769 x[1,3]
   + 0.1633942558746737 x[1,4] + 0.1165883376849434 x[1,5]
   + 0.0951784160139252 x[1,6] + 0.0370583115752829 x[1,7]
   + 0.0222106179286336 x[1,8] + 0.1663707571801567 x[1,9]
   + 0.0409747606614447 x[1,10] + 0.0595300261096606 x[1,11]
   - 0.0627154046997389 x[2,1] - 0.0482854656222802 x[2,2]
   - 0.1528807658833769 x[2,3] - 0.1633942558746737 x[2,4]
   - 0.1165883376849434 x[2,5] - 0.0951784160139252 x[2,6]
   - 0.0370583115752829 x[2,7] - 0.0222106179286336 x[2,8]
   - 0.1663707571801567 x[2,9] - 0.0409747606614447 x[2,10]
   - 0.0595300261096606 x[2,11] >= 0
 findWorstP[1,3]: z + 0.0348128807658834 cashProportion[1]
   - 0.0348128807658834 cashProportion[3] + 0.0627154046997389 x[1,1]
   + 0.0482854656222802 x[1,2] + 0.1528807658833769 x[1,3]
   + 0.1633942558746737 x[1,4] + 0.1165883376849434 x[1,5]
   + 0.0951784160139252 x[1,6] + 0.0370583115752829 x[1,7]
   + 0.0222106179286336 x[1,8] + 0.1663707571801567 x[1,9]
   + 0.0409747606614447 x[1,10] + 0.0595300261096606 x[1,11]
   - 0.0627154046997389 x[3,1] - 0.0482854656222802 x[3,2]
   - 0.1528807658833769 x[3,3] - 0.1633942558746737 x[3,4]
   - 0.1165883376849434 x[3,5] - 0.0951784160139252 x[3,6]
   - 0.0370583115752829 x[3,7] - 0.0222106179286336 x[3,8]
   - 0.1663707571801567 x[3,9] - 0.0409747606614447 x[3,10]
   - 0.0595300261096606 x[3,11] >= 0
 findWorstP[2,1]: z - 0.0312940071976217 cashProportion[1]
   + 0.0312940071976217 cashProportion[2] - 0.1180722891566265 x[1,1]
   - 0.0450477233609764 x[1,2] - 0.0249882647473009 x[1,3]
   - 0.0934282584884995 x[1,4] - 0.1394148020654045 x[1,5]
   - 0.0393052730402128 x[1,6] - 0.1506962916601471 x[1,7]
   - 0.1412298544828665 x[1,8] - 0.0887654514160538 x[1,9]
   - 0.1135972461273666 x[1,10] - 0.0141605382569238 x[1,11]
   + 0.1180722891566265 x[2,1] + 0.0450477233609764 x[2,2]
   + 0.0249882647473009 x[2,3] + 0.0934282584884995 x[2,4]
   + 0.1394148020654045 x[2,5] + 0.0393052730402128 x[2,6]
   + 0.1506962916601471 x[2,7] + 0.1412298544828665 x[2,8]
   + 0.0887654514160538 x[2,9] + 0.1135972461273666 x[2,10]
   + 0.0141605382569238 x[2,11] >= 0
 findWorstP[2,3]: z + 0.0312940071976217 cashProportion[2]
   - 0.0312940071976217 cashProportion[3] + 0.1180722891566265 x[2,1]
   + 0.0450477233609764 x[2,2] + 0.0249882647473009 x[2,3]
   + 0.0934282584884995 x[2,4] + 0.1394148020654045 x[2,5]
   + 0.0393052730402128 x[2,6] + 0.1506962916601471 x[2,7]
   + 0.1412298544828665 x[2,8] + 0.0887654514160538 x[2,9]
   + 0.1135972461273666 x[2,10] + 0.0141605382569238 x[2,11]
   - 0.1180722891566265 x[3,1] - 0.0450477233609764 x[3,2]
   - 0.0249882647473009 x[3,3] - 0.0934282584884995 x[3,4]
   - 0.1394148020654045 x[3,5] - 0.0393052730402128 x[3,6]
   - 0.1506962916601471 x[3,7] - 0.1412298544828665 x[3,8]
   - 0.0887654514160538 x[3,9] - 0.1135972461273666 x[3,10]
   - 0.0141605382569238 x[3,11] >= 0
 findWorstP[3,1]: z - 0.03170526783025 cashProportion[1]
   + 0.03170526783025 cashProportion[3] - 0.1195764176217879 x[1,1]
   - 0.003170526783025 x[1,2] - 0.0529636499104326 x[1,3]
   - 0.0342099839888397 x[1,4] - 0.0673736941392813 x[1,5]
   - 0.0627130197682345 x[1,6] - 0.0915489608598469 x[1,7]
   - 0.1515194749607648 x[1,8] - 0.0897100553256924 x[1,9]
   - 0.1395031784531 x[1,10] - 0.1560057703587451 x[1,11]
   + 0.1195764176217879 x[3,1] + 0.003170526783025 x[3,2]
   + 0.0529636499104326 x[3,3] + 0.0342099839888397 x[3,4]
   + 0.0673736941392813 x[3,5] + 0.0627130197682345 x[3,6]
   + 0.0915489608598469 x[3,7] + 0.1515194749607648 x[3,8]
   + 0.0897100553256924 x[3,9] + 0.1395031784531 x[3,10]
   + 0.1560057703587451 x[3,11] >= 0
 findWorstP[3,2]: z - 0.03170526783025 cashProportion[2]
   + 0.03170526783025 cashProportion[3] - 0.1195764176217879 x[2,1]
   - 0.003170526783025 x[2,2] - 0.0529636499104326 x[2,3]
   - 0.0342099839888397 x[2,4] - 0.0673736941392813 x[2,5]
   - 0.0627130197682345 x[2,6] - 0.0915489608598469 x[2,7]
   - 0.1515194749607648 x[2,8] - 0.0897100553256924 x[2,9]
   - 0.1395031784531 x[2,10] - 0.1560057703587451 x[2,11]
   + 0.1195764176217879 x[3,1] + 0.003170526783025 x[3,2]
   + 0.0529636499104326 x[3,3] + 0.0342099839888397 x[3,4]
   + 0.0673736941392813 x[3,5] + 0.0627130197682345 x[3,6]
   + 0.0915489608598469 x[3,7] + 0.1515194749607648 x[3,8]
   + 0.0897100553256924 x[3,9] + 0.1395031784531 x[3,10]
   + 0.1560057703587451 x[3,11] >= 0
Bounds
 z <= 1
 -infinity <= cashProportion[1] <= 1
 -infinity <= cashProportion[2] <= 1
 -infinity <= cashProportion[3] <= 1
Binaries
 x[1,1] x[1,2] x[1,3] x[1,4] x[1,5] x[1,6] x[1,7] x[1,8] x[1,9] x[1,10]
 x[1,11] x[2,1] x[2,2] x[2,3] x[2,4] x[2,5] x[2,6] x[2,7] x[2,8] x[2,9]
 x[2,10] x[2,11] x[3,1] x[3,2] x[3,3] x[3,4] x[3,5] x[3,6] x[3,7] x[3,8]
 x[3,9] x[3,10] x[3,11]
End
