data/mps_files/pEFS/51_3.mps
NAME foo
ROWS
 N  OBJ
 E  allocateEach[1]
 E  allocateEach[2]
 E  allocateEach[3]
 E  allocateEach[4]
 E  allocateEach[5]
 E  allocateEach[6]
 E  allocateEach[7]
 E  allocateEach[8]
 E  allocateEach[9]
 E  allocateEach[10]
 E  allocateEach[11]
 E  allocateAllCash
 G  findWorstP[1,2]
 G  findWorstP[1,3]
 G  findWorstP[2,1]
 G  findWorstP[2,3]
 G  findWorstP[3,1]
 G  findWorstP[3,2]
COLUMNS
    z         OBJ       1
    z         findWorstP[1,2]  1
    z         findWorstP[1,3]  1
    z         findWorstP[2,1]  1
    z         findWorstP[2,3]  1
    z         findWorstP[3,1]  1
    z         findWorstP[3,2]  1
    cashProportion[1]  allocateAllCash  1
    cashProportion[1]  findWorstP[1,2]  3.4812880765883382e-02
    cashProportion[1]  findWorstP[1,3]  3.4812880765883382e-02
    cashProportion[1]  findWorstP[2,1]  -3.1294007197621661e-02
    cashProportion[1]  findWorstP[3,1]  -0.03170526783025
    cashProportion[2]  allocateAllCash  1
    cashProportion[2]  findWorstP[1,2]  -3.4812880765883382e-02
    cashProportion[2]  findWorstP[2,1]  3.1294007197621661e-02
    cashProportion[2]  findWorstP[2,3]  3.1294007197621661e-02
    cashProportion[2]  findWorstP[3,2]  -0.03170526783025
    cashProportion[3]  allocateAllCash  1
    cashProportion[3]  findWorstP[1,3]  -3.4812880765883382e-02
    cashProportion[3]  findWorstP[2,3]  -3.1294007197621661e-02
    cashProportion[3]  findWorstP[3,1]  0.03170526783025
    cashProportion[3]  findWorstP[3,2]  0.03170526783025
    MARKER    'MARKER'                 'INTORG'
    x[1,1]    allocateEach[1]  1
    x[1,1]    findWorstP[1,2]  6.2715404699738908e-02
    x[1,1]    findWorstP[1,3]  6.2715404699738908e-02
    x[1,1]    findWorstP[2,1]  -1.1807228915662653e-01
    x[1,1]    findWorstP[3,1]  -1.1957641762178788e-01
    x[1,2]    allocateEach[2]  1
    x[1,2]    findWorstP[1,2]  4.8285465622280248e-02
    x[1,2]    findWorstP[1,3]  4.8285465622280248e-02
    x[1,2]    findWorstP[2,1]  -4.5047723360976379e-02
    x[1,2]    findWorstP[3,1]  -0.003170526783025
    x[1,3]    allocateEach[3]  1
    x[1,3]    findWorstP[1,2]  1.5288076588337687e-01
    x[1,3]    findWorstP[1,3]  1.5288076588337687e-01
    x[1,3]    findWorstP[2,1]  -2.4988264747300898e-02
    x[1,3]    findWorstP[3,1]  -5.2963649910432627e-02
    x[1,4]    allocateEach[4]  1
    x[1,4]    findWorstP[1,2]  1.6339425587467366e-01
    x[1,4]    findWorstP[1,3]  1.6339425587467366e-01
    x[1,4]    findWorstP[2,1]  -9.3428258488499463e-02
    x[1,4]    findWorstP[3,1]  -3.4209983988839746e-02
    x[1,5]    allocateEach[5]  1
    x[1,5]    findWorstP[1,2]  1.1658833768494344e-01
    x[1,5]    findWorstP[1,3]  1.1658833768494344e-01
    x[1,5]    findWorstP[2,1]  -1.3941480206540449e-01
    x[1,5]    findWorstP[3,1]  -6.7373694139281251e-02
    x[1,6]    allocateEach[6]  1
    x[1,6]    findWorstP[1,2]  9.5178416013925154e-02
    x[1,6]    findWorstP[1,3]  9.5178416013925154e-02
    x[1,6]    findWorstP[2,1]  -0.0393052730402128
    x[1,6]    findWorstP[3,1]  -0.0627130197682345
    x[1,7]    allocateEach[7]  1
    x[1,7]    findWorstP[1,2]  3.7058311575282860e-02
    x[1,7]    findWorstP[1,3]  3.7058311575282860e-02
    x[1,7]    findWorstP[2,1]  -1.5069629166014709e-01
    x[1,7]    findWorstP[3,1]  -9.1548960859846873e-02
    x[1,8]    allocateEach[8]  1
    x[1,8]    findWorstP[1,2]  2.2210617928633596e-02
    x[1,8]    findWorstP[1,3]  2.2210617928633596e-02
    x[1,8]    findWorstP[2,1]  -1.4122985448286654e-01
    x[1,8]    findWorstP[3,1]  -1.5151947496076476e-01
    x[1,9]    allocateEach[9]  1
    x[1,9]    findWorstP[1,2]  1.6637075718015668e-01
    x[1,9]    findWorstP[1,3]  1.6637075718015668e-01
    x[1,9]    findWorstP[2,1]  -8.8765451416053839e-02
    x[1,9]    findWorstP[3,1]  -8.9710055325692373e-02
    x[1,10]   allocateEach[10]  1
    x[1,10]   findWorstP[1,2]  4.0974760661444738e-02
    x[1,10]   findWorstP[1,3]  4.0974760661444738e-02
    x[1,10]   findWorstP[2,1]  -1.1359724612736662e-01
    x[1,10]   findWorstP[3,1]  -0.1395031784531
    x[1,11]   allocateEach[11]  1
    x[1,11]   findWorstP[1,2]  5.9530026109660586e-02
    x[1,11]   findWorstP[1,3]  5.9530026109660586e-02
    x[1,11]   findWorstP[2,1]  -0.0141605382569238
    x[1,11]   findWorstP[3,1]  -1.5600577035874513e-01
    x[2,1]    allocateEach[1]  1
    x[2,1]    findWorstP[1,2]  -6.2715404699738908e-02
    x[2,1]    findWorstP[2,1]  1.1807228915662653e-01
    x[2,1]    findWorstP[2,3]  1.1807228915662653e-01
    x[2,1]    findWorstP[3,2]  -1.1957641762178788e-01
    x[2,2]    allocateEach[2]  1
    x[2,2]    findWorstP[1,2]  -4.8285465622280248e-02
    x[2,2]    findWorstP[2,1]  4.5047723360976379e-02
    x[2,2]    findWorstP[2,3]  4.5047723360976379e-02
    x[2,2]    findWorstP[3,2]  -0.003170526783025
    x[2,3]    allocateEach[3]  1
    x[2,3]    findWorstP[1,2]  -1.5288076588337687e-01
    x[2,3]    findWorstP[2,1]  2.4988264747300898e-02
    x[2,3]    findWorstP[2,3]  2.4988264747300898e-02
    x[2,3]    findWorstP[3,2]  -5.2963649910432627e-02
    x[2,4]    allocateEach[4]  1
    x[2,4]    findWorstP[1,2]  -1.6339425587467366e-01
    x[2,4]    findWorstP[2,1]  9.3428258488499463e-02
    x[2,4]    findWorstP[2,3]  9.3428258488499463e-02
    x[2,4]    findWorstP[3,2]  -3.4209983988839746e-02
    x[2,5]    allocateEach[5]  1
    x[2,5]    findWorstP[1,2]  -1.1658833768494344e-01
    x[2,5]    findWorstP[2,1]  1.3941480206540449e-01
    x[2,5]    findWorstP[2,3]  1.3941480206540449e-01
    x[2,5]    findWorstP[3,2]  -6.7373694139281251e-02
    x[2,6]    allocateEach[6]  1
    x[2,6]    findWorstP[1,2]  -9.5178416013925154e-02
    x[2,6]    findWorstP[2,1]  0.0393052730402128
    x[2,6]    findWorstP[2,3]  0.0393052730402128
    x[2,6]    findWorstP[3,2]  -0.0627130197682345
    x[2,7]    allocateEach[7]  1
    x[2,7]    findWorstP[1,2]  -3.7058311575282860e-02
    x[2,7]    findWorstP[2,1]  1.5069629166014709e-01
    x[2,7]    findWorstP[2,3]  1.5069629166014709e-01
    x[2,7]    findWorstP[3,2]  -9.1548960859846873e-02
    x[2,8]    allocateEach[8]  1
    x[2,8]    findWorstP[1,2]  -2.2210617928633596e-02
    x[2,8]    findWorstP[2,1]  1.4122985448286654e-01
    x[2,8]    findWorstP[2,3]  1.4122985448286654e-01
    x[2,8]    findWorstP[3,2]  -1.5151947496076476e-01
    x[2,9]    allocateEach[9]  1
    x[2,9]    findWorstP[1,2]  -1.6637075718015668e-01
    x[2,9]    findWorstP[2,1]  8.8765451416053839e-02
    x[2,9]    findWorstP[2,3]  8.8765451416053839e-02
    x[2,9]    findWorstP[3,2]  -8.9710055325692373e-02
    x[2,10]   allocateEach[10]  1
    x[2,10]   findWorstP[1,2]  -4.0974760661444738e-02
    x[2,10]   findWorstP[2,1]  1.1359724612736662e-01
    x[2,10]   findWorstP[2,3]  1.1359724612736662e-01
    x[2,10]   findWorstP[3,2]  -0.1395031784531
    x[2,11]   allocateEach[11]  1
    x[2,11]   findWorstP[1,2]  -5.9530026109660586e-02
    x[2,11]   findWorstP[2,1]  0.0141605382569238
    x[2,11]   findWorstP[2,3]  0.0141605382569238
    x[2,11]   findWorstP[3,2]  -1.5600577035874513e-01
    x[3,1]    allocateEach[1]  1
    x[3,1]    findWorstP[1,3]  -6.2715404699738908e-02
    x[3,1]    findWorstP[2,3]  -1.1807228915662653e-01
    x[3,1]    findWorstP[3,1]  1.1957641762178788e-01
    x[3,1]    findWorstP[3,2]  1.1957641762178788e-01
    x[3,2]    allocateEach[2]  1
    x[3,2]    findWorstP[1,3]  -4.8285465622280248e-02
    x[3,2]    findWorstP[2,3]  -4.5047723360976379e-02
    x[3,2]    findWorstP[3,1]  0.003170526783025
    x[3,2]    findWorstP[3,2]  0.003170526783025
    x[3,3]    allocateEach[3]  1
    x[3,3]    findWorstP[1,3]  -1.5288076588337687e-01
    x[3,3]    findWorstP[2,3]  -2.4988264747300898e-02
    x[3,3]    findWorstP[3,1]  5.2963649910432627e-02
    x[3,3]    findWorstP[3,2]  5.2963649910432627e-02
    x[3,4]    allocateEach[4]  1
    x[3,4]    findWorstP[1,3]  -1.6339425587467366e-01
    x[3,4]    findWorstP[2,3]  -9.3428258488499463e-02
    x[3,4]    findWorstP[3,1]  3.4209983988839746e-02
    x[3,4]    findWorstP[3,2]  3.4209983988839746e-02
    x[3,5]    allocateEach[5]  1
    x[3,5]    findWorstP[1,3]  -1.1658833768494344e-01
    x[3,5]    findWorstP[2,3]  -1.3941480206540449e-01
    x[3,5]    findWorstP[3,1]  6.7373694139281251e-02
    x[3,5]    findWorstP[3,2]  6.7373694139281251e-02
    x[3,6]    allocateEach[6]  1
    x[3,6]    findWorstP[1,3]  -9.5178416013925154e-02
    x[3,6]    findWorstP[2,3]  -0.0393052730402128
    x[3,6]    findWorstP[3,1]  0.0627130197682345
    x[3,6]    findWorstP[3,2]  0.0627130197682345
    x[3,7]    allocateEach[7]  1
    x[3,7]    findWorstP[1,3]  -3.7058311575282860e-02
    x[3,7]    findWorstP[2,3]  -1.5069629166014709e-01
    x[3,7]    findWorstP[3,1]  9.1548960859846873e-02
    x[3,7]    findWorstP[3,2]  9.1548960859846873e-02
    x[3,8]    allocateEach[8]  1
    x[3,8]    findWorstP[1,3]  -2.2210617928633596e-02
    x[3,8]    findWorstP[2,3]  -1.4122985448286654e-01
    x[3,8]    findWorstP[3,1]  1.5151947496076476e-01
    x[3,8]    findWorstP[3,2]  1.5151947496076476e-01
    x[3,9]    allocateEach[9]  1
    x[3,9]    findWorstP[1,3]  -1.6637075718015668e-01
    x[3,9]    findWorstP[2,3]  -8.8765451416053839e-02
    x[3,9]    findWorstP[3,1]  8.9710055325692373e-02
    x[3,9]    findWorstP[3,2]  8.9710055325692373e-02
    x[3,10]   allocateEach[10]  1
    x[3,10]   findWorstP[1,3]  -4.0974760661444738e-02
    x[3,10]   findWorstP[2,3]  -1.1359724612736662e-01
    x[3,10]   findWorstP[3,1]  0.1395031784531
    x[3,10]   findWorstP[3,2]  0.1395031784531
    x[3,11]   allocateEach[11]  1
    x[3,11]   findWorstP[1,3]  -5.9530026109660586e-02
    x[3,11]   findWorstP[2,3]  -0.0141605382569238
    x[3,11]   findWorstP[3,1]  1.5600577035874513e-01
    x[3,11]   findWorstP[3,2]  1.5600577035874513e-01
    MARKER    'MARKER'                 'INTEND'
RHS
    RHS1      allocateEach[1]  1
    RHS1      allocateEach[2]  1
    RHS1      allocateEach[3]  1
    RHS1      allocateEach[4]  1
    RHS1      allocateEach[5]  1
    RHS1      allocateEach[6]  1
    RHS1      allocateEach[7]  1
    RHS1      allocateEach[8]  1
    RHS1      allocateEach[9]  1
    RHS1      allocateEach[10]  1
    RHS1      allocateEach[11]  1
    RHS1      allocateAllCash  1
BOUNDS
 UP BND1      z         1
 MI BND1      cashProportion[1]
 UP BND1      cashProportion[1]  1
 MI BND1      cashProportion[2]
 UP BND1      cashProportion[2]  1
 MI BND1      cashProportion[3]
 UP BND1      cashProportion[3]  1
 BV BND1      x[1,1]  
 BV BND1      x[1,2]  
 BV BND1      x[1,3]  
 BV BND1      x[1,4]  
 BV BND1      x[1,5]  
 BV BND1      x[1,6]  
 BV BND1      x[1,7]  
 BV BND1      x[1,8]  
 BV BND1      x[1,9]  
 BV BND1      x[1,10] 
 BV BND1      x[1,11] 
 BV BND1      x[2,1]  
 BV BND1      x[2,2]  
 BV BND1      x[2,3]  
 BV BND1      x[2,4]  
 BV BND1      x[2,5]  
 BV BND1      x[2,6]  
 BV BND1      x[2,7]  
 BV BND1      x[2,8]  
 BV BND1      x[2,9]  
 BV BND1      x[2,10] 
 BV BND1      x[2,11] 
 BV BND1      x[3,1]  
 BV BND1      x[3,2]  
 BV BND1      x[3,3]  
 BV BND1      x[3,4]  
 BV BND1      x[3,5]  
 BV BND1      x[3,6]  
 BV BND1      x[3,7]  
 BV BND1      x[3,8]  
 BV BND1      x[3,9]  
 BV BND1      x[3,10] 
 BV BND1      x[3,11] 
ENDATA
